Instance name: /home/cuong/CLionProjects/uMV-FSTSP/50_dis_rand_ins/v97
Write arg val: 1

drone speed: 1 miles/minute
uav non-eligible customer: 7 10 11 
Printing tau:
0 11.0343 41.4609 43.5572 30.7907 15.4741 31.6428 43.2834 53.9784 61.5288 69.2922 0 
11.0343 0 52.1955 37.1463 41.825 26.5084 42.6771 52.594 60.3894 72.5631 80.3265 11.0343 
41.4609 52.1955 0 23.4349 36.2628 44.6215 50.3474 84.7443 95.4393 44.6234 39.089 41.4609 
43.5572 37.1463 23.4349 0 38.3591 46.7178 52.4437 86.8406 97.5356 46.7197 51.5659 43.5572 
30.7907 41.825 36.2628 38.3591 0 15.3166 14.0846 48.4815 59.1765 30.738 38.5015 30.7907 
15.4741 26.5084 44.6215 46.7178 15.3166 0 16.1687 40.1228 50.8178 46.0546 53.8181 15.4741 
31.6428 42.6771 50.3474 52.4437 14.0846 16.1687 0 34.3969 45.0919 29.8859 37.6494 31.6428 
43.2834 52.594 84.7443 86.8406 48.4815 40.1228 34.3969 0 10.695 40.1208 45.6553 43.2834 
53.9784 60.3894 95.4393 97.5356 59.1765 50.8178 45.0919 10.695 0 50.8159 56.3504 53.9784 
61.5288 72.5631 44.6234 46.7197 30.738 46.0546 29.8859 40.1208 50.8159 0 7.76345 61.5288 
69.2922 80.3265 39.089 51.5659 38.5015 53.8181 37.6494 45.6553 56.3504 7.76345 0 69.2922 
0 0 0 0 0 0 0 0 0 0 0 0 
Printing tau_prime:
0 3.3839 15.4917 12.4697 8.28016 4.18792 8.71518 15.9114 18.4432 16.3368 18.3846 0 
3.3839 0 16.6714 12.4572 11.0952 7.47328 12.0215 19.1868 21.6409 19.4079 21.3267 3.3839 
15.4917 16.6714 0 6.23892 10.0011 13.6525 13.5869 22.4715 25.3173 13.0068 12.7701 15.4917 
12.4697 12.4572 6.23892 0 10.7452 12.4023 14.3875 23.8786 26.7756 16.9817 17.4994 12.4697 
8.28016 11.0952 10.0011 10.7452 0 4.62685 3.74157 13.1689 16.0699 8.44677 10.2367 8.28016 
4.18792 7.47328 13.6525 12.4023 4.62685 0 4.54828 12.69 15.4353 12.2121 14.3459 4.18792 
8.71518 12.0215 13.5869 14.3875 3.74157 4.54828 0 9.49235 12.3882 8.06874 10.4201 8.71518 
15.9114 19.1868 22.4715 23.8786 13.1689 12.69 9.49235 0 2.90102 11.8836 14.1646 15.9114 
18.4432 21.6409 25.3173 26.7756 16.0699 15.4353 12.3882 2.90102 0 14.2655 16.393 18.4432 
16.3368 19.4079 13.0068 16.9817 8.44677 12.2121 8.06874 11.8836 14.2655 0 2.52815 16.3368 
18.3846 21.3267 12.7701 17.4994 10.2367 14.3459 10.4201 14.1646 16.393 2.52815 0 18.3846 
0 0 0 0 0 0 0 0 0 0 0 0 
Version identifier: 22.1.1.0 | 2022-11-28 | 9160aff4d
CPXPARAM_MIP_Tolerances_Integrality              0
Tried aggregator 1 time.
MIP Presolve eliminated 1 rows and 12 columns.
MIP Presolve modified 20 coefficients.
Reduced MIP has 122 rows, 120 columns, and 510 nonzeros.
Reduced MIP has 110 binaries, 0 generals, 0 SOSs, and 0 indicators.
Presolve time = 0.00 sec. (0.27 ticks)
Found incumbent of value 489.806100 after 0.00 sec. (0.75 ticks)
Probing time = 0.00 sec. (0.26 ticks)
Cover probing fixed 0 vars, tightened 10 bounds.
Tried aggregator 1 time.
Detecting symmetries...
MIP Presolve eliminated 10 rows and 0 columns.
MIP Presolve modified 180 coefficients.
Reduced MIP has 112 rows, 120 columns, and 490 nonzeros.
Reduced MIP has 110 binaries, 0 generals, 0 SOSs, and 0 indicators.
Presolve time = 0.00 sec. (0.35 ticks)
Probing time = 0.00 sec. (0.26 ticks)
Clique table members: 67.
MIP emphasis: balance optimality and feasibility.
MIP search method: dynamic search.
Parallel mode: deterministic, using up to 20 threads.
Root relaxation solution time = 0.00 sec. (0.21 ticks)

        Nodes                                         Cuts/
   Node  Left     Objective  IInf  Best Integer    Best Bound    ItCnt     Gap

*     0+    0                          489.8061        0.0000           100.00%
      0     0      172.7618    19      489.8061      172.7618       26   64.73%
*     0+    0                          287.0768      172.7618            39.82%
      0     0      258.1081    18      287.0768      Cuts: 50       48   10.09%
      0     0      258.1081    18      287.0768      Cuts: 12       52   10.09%
*     0+    0                          276.6517      258.1081             6.70%
*     0+    0                          259.2510      258.1081             0.44%
Detecting symmetries...

Repeating presolve.
Tried aggregator 2 times.
MIP Presolve eliminated 58 rows and 74 columns.
MIP Presolve modified 4 coefficients.
Aggregator did 6 substitutions.
Reduced MIP has 48 rows, 40 columns, and 156 nonzeros.
Reduced MIP has 30 binaries, 0 generals, 0 SOSs, and 0 indicators.
Presolve time = 0.00 sec. (0.18 ticks)
Probing fixed 2 vars, tightened 1 bounds.
Probing time = 0.00 sec. (0.05 ticks)
Cover probing fixed 0 vars, tightened 16 bounds.
Tried aggregator 1 time.
MIP Presolve eliminated 2 rows and 2 columns.
MIP Presolve modified 62 coefficients.
Reduced MIP has 46 rows, 38 columns, and 146 nonzeros.
Reduced MIP has 28 binaries, 0 generals, 0 SOSs, and 0 indicators.
Presolve time = 0.00 sec. (0.08 ticks)
Probing fixed 0 vars, tightened 1 bounds.
Probing time = 0.00 sec. (0.04 ticks)
Cover probing fixed 0 vars, tightened 8 bounds.
Tried aggregator 1 time.
Detecting symmetries...
MIP Presolve modified 38 coefficients.
Reduced MIP has 46 rows, 38 columns, and 146 nonzeros.
Reduced MIP has 28 binaries, 0 generals, 0 SOSs, and 0 indicators.
Presolve time = 0.00 sec. (0.10 ticks)
Represolve time = 0.00 sec. (0.64 ticks)
Probing fixed 4 vars, tightened 0 bounds.
Probing time = 0.00 sec. (0.11 ticks)
Cover probing fixed 0 vars, tightened 12 bounds.
Clique table members: 147.
MIP emphasis: balance optimality and feasibility.
MIP search method: dynamic search.
Parallel mode: deterministic, using up to 20 threads.
Root relaxation solution time = 0.00 sec. (0.12 ticks)

        Nodes                                         Cuts/
   Node  Left     Objective  IInf  Best Integer    Best Bound    ItCnt     Gap

*     0+    0                          259.2511      258.1081             0.44%
      0     0      259.2509    16      259.2511      259.2509       65    0.00%

Clique cuts applied:  3
Implied bound cuts applied:  3
Mixed integer rounding cuts applied:  5
Multi commodity flow cuts applied:  2
Gomory fractional cuts applied:  1

Root node processing (before b&c):
  Real time             =    0.16 sec. (6.50 ticks)
Parallel b&c, 20 threads:
  Real time             =    0.00 sec. (0.00 ticks)
  Sync time (average)   =    0.00 sec.
  Wait time (average)   =    0.00 sec.
                          ------------
Total (root+branch&cut) =    0.16 sec. (6.50 ticks)

TSP solution for this instance: 0 5 4 6 7 8 9 10 2 3 1 11 
12
Warmstart X[1][0] == 1
Warmstart X[2][5] == 1
Warmstart X[3][4] == 1
Warmstart X[4][6] == 1
Warmstart X[5][7] == 1
Warmstart X[6][8] == 1
Warmstart X[7][9] == 1
Warmstart X[8][10] == 1
Warmstart X[9][2] == 1
Warmstart X[10][3] == 1
Warmstart X[11][1] == 1
---------------------------------------------
Calculate max stage gap for sortie.... 
Stage gap of 3 with smallest length = 22.0686 violated endurance constraint!
---------------------------------------------
Variable z[1][4] was set to 0.
Variable z[1][5] was set to 0.
Variable z[1][6] was set to 0.
Variable z[1][7] was set to 0.
Variable z[1][8] was set to 0.
Variable z[1][9] was set to 0.
Variable z[1][10] was set to 0.
Variable z[1][11] was set to 0.
Variable z[1][12] was set to 0.
Variable z[2][5] was set to 0.
Variable z[2][6] was set to 0.
Variable z[2][7] was set to 0.
Variable z[2][8] was set to 0.
Variable z[2][9] was set to 0.
Variable z[2][10] was set to 0.
Variable z[2][11] was set to 0.
Variable z[2][12] was set to 0.
Variable z[3][6] was set to 0.
Variable z[3][7] was set to 0.
Variable z[3][8] was set to 0.
Variable z[3][9] was set to 0.
Variable z[3][10] was set to 0.
Variable z[3][11] was set to 0.
Variable z[3][12] was set to 0.
Variable z[4][7] was set to 0.
Variable z[4][8] was set to 0.
Variable z[4][9] was set to 0.
Variable z[4][10] was set to 0.
Variable z[4][11] was set to 0.
Variable z[4][12] was set to 0.
Variable z[5][8] was set to 0.
Variable z[5][9] was set to 0.
Variable z[5][10] was set to 0.
Variable z[5][11] was set to 0.
Variable z[5][12] was set to 0.
Variable z[6][9] was set to 0.
Variable z[6][10] was set to 0.
Variable z[6][11] was set to 0.
Variable z[6][12] was set to 0.
Variable z[7][10] was set to 0.
Variable z[7][11] was set to 0.
Variable z[7][12] was set to 0.
Variable z[8][11] was set to 0.
Variable z[8][12] was set to 0.
Variable z[9][12] was set to 0.
Num constraint added = 4752
Warning:  Output names have been modified due to duplicate names or characters invalid in LP format.
Version identifier: 22.1.1.0 | 2022-11-28 | 9160aff4d
CPXPARAM_TimeLimit                               200
CPXPARAM_MIP_Tolerances_Integrality              0
1 of 1 MIP starts provided solutions.
MIP start 'm1' defined initial solution with objective 259.2510.
Tried aggregator 2 times.
MIP Presolve eliminated 6223 rows and 2307 columns.
MIP Presolve modified 1902 coefficients.
Aggregator did 40 substitutions.
Reduced MIP has 1299 rows, 2429 columns, and 55020 nonzeros.
Reduced MIP has 2408 binaries, 0 generals, 0 SOSs, and 0 indicators.
Presolve time = 0.07 sec. (225.73 ticks)
Probing fixed 201 vars, tightened 0 bounds.
Probing changed sense of 5 constraints.
Probing time = 0.03 sec. (72.98 ticks)
Tried aggregator 3 times.
Detecting symmetries...
MIP Presolve eliminated 26 rows and 207 columns.
MIP Presolve modified 231 coefficients.
Aggregator did 17 substitutions.
Reduced MIP has 1253 rows, 2205 columns, and 48817 nonzeros.
Reduced MIP has 2184 binaries, 0 generals, 0 SOSs, and 0 indicators.
Presolve time = 0.05 sec. (103.12 ticks)
Probing time = 0.00 sec. (5.25 ticks)
Clique table members: 11629.
MIP emphasis: balance optimality and feasibility.
MIP search method: dynamic search.
Parallel mode: deterministic, using up to 20 threads.
Root relaxation solution time = 0.12 sec. (270.57 ticks)

        Nodes                                         Cuts/
   Node  Left     Objective  IInf  Best Integer    Best Bound    ItCnt     Gap

*     0+    0                          259.2510       11.0343            95.74%
      0     0      143.2373   272      259.2510      143.2373       28   44.75%
      0     0      156.9929   270      259.2510      Cuts: 40     1139   39.44%
      0     0      160.7694   308      259.2510      Cuts: 11     1594   37.99%
      0     0      161.9156   352      259.2510  ZeroHalf: 14     3141   37.54%
*     0+    0                          255.6276      161.9156            36.66%
      0     0      163.3475   309      255.6276      Cuts: 14     3416   36.10%
      0     0      163.9026   340      255.6276   ZeroHalf: 4     3862   35.88%
Detecting symmetries...
      0     0      164.8304   309      255.6276      Cuts: 10     4080   35.52%
      0     0      165.7389   319      255.6276       Cuts: 7     4385   35.16%
      0     0      165.7389   326      255.6276   ZeroHalf: 1     4421   35.16%
Detecting symmetries...
      0     2      165.7389   320      255.6276      165.7389     4421   35.16%
Elapsed time = 1.19 sec. (2198.65 ticks, tree = 0.02 MB, solutions = 2)
     18     4      182.1048   317      255.6276      167.0483     9475   34.65%
*    48+    7                          244.3950      174.7843            28.48%
    214    79      189.9032   202      244.3950      176.4657    42260   27.79%
    578   276        cutoff            244.3950      178.6012    99382   26.92%
    838   295      211.6703   144      244.3950      181.4048   117356   25.77%
   1479   581      227.0252    64      244.3950      184.0557   188332   24.69%
   2036   831        cutoff            244.3950      184.0557   268847   24.69%
   2538   782    infeasible            244.3950      188.5406   291816   22.85%
   3440   901    infeasible            244.3950      198.0848   375045   18.95%
   4374   995        cutoff            244.3950      202.9352   448058   16.96%

GUB cover cuts applied:  6
Cover cuts applied:  109
Implied bound cuts applied:  26
Zero-half cuts applied:  22
Lift and project cuts applied:  2
Gomory fractional cuts applied:  2

Root node processing (before b&c):
  Real time             =    1.16 sec. (2157.31 ticks)
Parallel b&c, 20 threads:
  Real time             =    2.89 sec. (2955.22 ticks)
  Sync time (average)   =    1.16 sec.
  Wait time (average)   =    0.00 sec.
                          ------------
Total (root+branch&cut) =    4.04 sec. (5112.52 ticks)
Feasible solution found!
Truck nodes:
Stage 1 at customer 0 with arrival time is: 0
Stage 1 at customer 0 with departure time is: 0
Stage 2 at customer 5 with arrival time is: 15.4741
Stage 2 at customer 5 with departure time is: 17.4741
Stage 3 at customer 6 with arrival time is: 33.6428
Stage 3 at customer 6 with departure time is: 34.6428
Stage 4 at customer 7 with arrival time is: 69.0397
Stage 4 at customer 7 with departure time is: 69.0397
Stage 5 at customer 8 with arrival time is: 79.7347
Stage 5 at customer 8 with departure time is: 79.7347
Stage 6 at customer 7 with arrival time is: 90.4297
Stage 6 at customer 7 with departure time is: 90.4297
Stage 7 at customer 9 with arrival time is: 130.55
Stage 7 at customer 9 with departure time is: 130.55
Stage 8 at customer 10 with arrival time is: 138.314
Stage 8 at customer 10 with departure time is: 138.314
Stage 9 at customer 2 with arrival time is: 177.403
Stage 9 at customer 2 with departure time is: 177.403
Stage 10 at customer 3 with arrival time is: 200.838
Stage 10 at customer 3 with departure time is: 200.838
Stage 11 at customer 11 with arrival time is: 244.395
Stage 11 at customer 11 with departure time is: 244.395
Truck arcs:
Arc 1 connecting 0 and 5 with cost 15.4741 
Arc 2 connecting 5 and 6 with cost 16.1687 
Arc 3 connecting 6 and 7 with cost 34.3969 
Arc 4 connecting 7 and 8 with cost 10.695 
Arc 5 connecting 8 and 7 with cost 10.695 
Arc 6 connecting 7 and 9 with cost 40.1208 
Arc 7 connecting 9 and 10 with cost 7.76345 
Arc 8 connecting 10 and 2 with cost 39.089 
Arc 9 connecting 2 and 3 with cost 23.4349 
Arc 10 connecting 3 and 11 with cost 43.5572 
Customer 1 served by drone.
Drone fly from 0 at stage 1 to serve 1 and then fly back to 5 at stage 2. 
Truck arcs during this sortie: 0--->5
Truck travel time from stage 1 to 2 is: 15.4741
Total drone travel time: 10.8572
Drone arrival time: 10.8572
Truck arrival time: 15.4741
Truck departure time = max(d/a, t/a) plus (sl/sr): 17.4741
Customer 4 served by drone.
Drone fly from 5 at stage 2 to serve 4 and then fly back to 6 at stage 3. 
Truck arcs during this sortie: 5--->6
Truck travel time from stage 2 to 3 is: 16.1687
Total drone travel time: 8.36842
Drone arrival time: 25.8425
Truck arrival time: 33.6428
Truck departure time = max(d/a, t/a) plus (sl/sr): 34.6428
Done!
-------------------------Re-calculated objective-----------------------
244.395
------------------------------------------------------------------------
Solve time: 4.052
Node 7 was revisited 1 times!
OBJECTIVE VALUE: 244.395, NUMBER OF SORTIES: 2.
Number of revisit: 1
In write mode
